122     4       
16      19      15      17      
0       0       0       0       0       3       2       3       4       
7       0       0       0       9       3       14      58      73      
1       7       0       0       0       3       5       26      43      
1       0       0       6       0       3       6       8       13      
10      0       5       0       0       3       7       11      21      
9       0       5       0       0       3       9       10      30      
5       0       0       1       0       1       23      
8       0       0       1       0       3       17      24      101     
2       0       2       0       0       1       16      
10      10      0       0       0       1       12      
1       0       0       0       3       3       15      22      34      
4       4       0       0       0       3       59      86      99      
6       0       5       0       0       2       66      85      
2       0       0       7       0       3       20      60      76      
8       0       9       0       0       3       25      74      119     
4       0       9       0       0       2       18      68      
4       9       0       0       0       3       19      49      112     
1       0       0       9       0       1       72      
3       1       0       0       0       3       36      42      70      
4       0       0       0       8       3       54      100     104     
1       0       8       0       0       3       27      35      40      
8       0       0       3       0       3       29      62      64      
2       0       7       0       0       1       75      
8       8       0       0       0       1       57      
7       10      0       0       0       1       76      
4       8       0       0       0       3       44      48      61      
3       1       0       0       0       3       28      31      81      
7       8       0       0       0       1       52      
9       0       0       4       0       2       33      80      
1       0       0       0       1       3       32      39      107     
4       0       0       0       2       3       63      78      84      
3       0       3       0       0       3       38      41      56      
1       2       0       0       0       3       37      97      114     
3       0       8       0       0       1       91      
5       0       0       9       0       2       69      114     
5       10      0       0       0       1       120     
2       0       0       8       0       1       53      
6       0       0       0       8       1       55      
10      0       0       0       9       3       50      76      109     
3       0       4       0       0       3       45      47      55      
8       0       0       0       10      1       116     
7       2       0       0       0       1       46      
5       0       0       0       5       1       60      
6       0       0       0       6       1       110     
10      0       0       5       0       1       100     
8       0       0       4       0       1       85      
5       0       3       0       0       1       67      
5       0       4       0       0       3       67      72      79      
7       0       0       4       0       1       51      
10      0       0       5       0       1       93      
1       0       0       5       0       1       116     
7       0       7       0       0       2       65      89      
7       0       1       0       0       1       112     
8       0       6       0       0       1       77      
6       0       3       0       0       1       65      
9       0       0       2       0       1       98      
6       0       0       0       10      2       71      88      
5       0       0       9       0       1       75      
4       0       0       0       7       1       62      
4       0       1       0       0       2       87      103     
1       0       0       0       7       1       98      
4       0       0       0       4       1       84      
6       0       0       8       0       1       118     
2       0       3       0       0       1       82      
10      0       0       8       0       1       98      
8       0       3       0       0       1       120     
2       0       2       0       0       2       96      108     
10      0       7       0       0       1       120     
10      0       9       0       0       1       97      
3       0       0       5       0       1       96      
2       0       6       0       0       1       90      
1       0       7       0       0       1       115     
2       4       0       0       0       1       83      
8       0       4       0       0       1       94      
8       0       0       2       0       1       79      
8       0       0       0       1       1       91      
7       0       6       0       0       1       95      
8       0       0       2       0       1       82      
9       4       0       0       0       1       84      
6       0       10      0       0       1       87      
4       0       0       4       0       1       92      
5       9       0       0       0       1       106     
3       0       1       0       0       1       91      
2       0       0       0       8       1       108     
8       0       0       6       0       1       105     
1       0       0       5       0       1       94      
10      9       0       0       0       1       111     
1       0       0       0       10      1       100     
4       6       0       0       0       1       92      
1       0       0       8       0       1       93      
4       0       1       0       0       2       97      99      
8       0       0       0       10      1       96      
6       0       7       0       0       1       121     
7       7       0       0       0       1       118     
2       0       0       2       0       1       109     
3       2       0       0       0       1       102     
9       0       0       0       9       1       112     
3       0       0       0       4       1       109     
2       1       0       0       0       1       102     
1       0       0       1       0       2       107     114     
8       0       6       0       0       1       105     
9       0       8       0       0       1       121     
6       0       0       0       7       2       108     111     
4       0       0       0       10      1       106     
1       0       3       0       0       2       107     111     
9       0       0       0       10      1       117     
4       9       0       0       0       1       113     
7       0       3       0       0       1       113     
5       8       0       0       0       1       119     
7       0       8       0       0       1       115     
7       4       0       0       0       1       113     
5       6       0       0       0       1       118     
6       1       0       0       0       1       117     
7       8       0       0       0       1       115     
1       0       0       9       0       1       116     
9       10      0       0       0       1       117     
4       4       0       0       0       1       119     
4       0       0       0       4       1       121     
8       9       0       0       0       1       122     
1       0       0       0       7       1       122     
7       0       5       0       0       1       122     
0       0       0       0       0       0       